{
  "AWSTemplateFormatVersion" : "2010-09-09",

  "Description" : "This template defines",

  "Metadata" : {

  },

  "Parameters" : {

  },

  "Mappings" : {

  },

  "Conditions" : {

  },

  "Resources" : {

  },

  "Outputs" : {

  }
}
